(set-info :smt-lib-version 2.6)
(set-logic QF_AX)
(set-info :source |
Benchmarks used in the followin paper:
Big proof engines as little proof engines: new results on rewrite-based satisfiability procedure
Alessandro Armando, Maria Paola Bonacina, Silvio Ranise, Stephan Schulz. 
PDPAR'05
http://www.ai.dist.unige.it/pdpar05/


|)
(set-info :category "crafted")
(set-info :status sat)
(declare-sort Index 0)
(declare-sort Element 0)
(declare-fun a_100 () (Array Index Element))
(declare-fun a_102 () (Array Index Element))
(declare-fun a_104 () (Array Index Element))
(declare-fun a_106 () (Array Index Element))
(declare-fun a_108 () (Array Index Element))
(declare-fun a_109 () (Array Index Element))
(declare-fun a_110 () (Array Index Element))
(declare-fun a_111 () (Array Index Element))
(declare-fun a_113 () (Array Index Element))
(declare-fun a_115 () (Array Index Element))
(declare-fun a_117 () (Array Index Element))
(declare-fun a_119 () (Array Index Element))
(declare-fun e_101 () Element)
(declare-fun e_103 () Element)
(declare-fun e_105 () Element)
(declare-fun e_107 () Element)
(declare-fun e_112 () Element)
(declare-fun e_114 () Element)
(declare-fun e_116 () Element)
(declare-fun e_118 () Element)
(declare-fun e_99 () Element)
(declare-fun a1 () (Array Index Element))
(declare-fun i0 () Index)
(declare-fun i1 () Index)
(declare-fun i2 () Index)
(assert (= a_100 (store a1 i2 e_99)))
(assert (= a_102 (store a_100 i1 e_101)))
(assert (= a_104 (store a_102 i2 e_103)))
(assert (= a_106 (store a_104 i1 e_105)))
(assert (= a_108 (store a_106 i2 e_107)))
(assert (= a_109 (store a_108 i2 e_107)))
(assert (= a_110 (store a1 i1 e_101)))
(assert (= a_111 (store a_110 i2 e_99)))
(assert (= a_113 (store a_111 i1 e_112)))
(assert (= a_115 (store a_113 i2 e_114)))
(assert (= a_117 (store a_115 i0 e_116)))
(assert (= a_119 (store a_117 i2 e_118)))
(assert (= e_101 (select a1 i2)))
(assert (= e_103 (select a_102 i1)))
(assert (= e_105 (select a_102 i2)))
(assert (= e_107 (select a_106 i2)))
(assert (= e_112 (select a_111 i2)))
(assert (= e_114 (select a_111 i1)))
(assert (= e_116 (select a_115 i2)))
(assert (= e_118 (select a_115 i0)))
(assert (= e_99 (select a1 i1)))
(assert (not (= a_109 a_119)))
(check-sat)
(exit)
